82 96 16 80 28 69 73 66 39 92 54 83 7 72 38 19 99 5 20 91 44 29 14 32 47 77 88 40 4 3 68 42 65 27 12 0 15 48 78 86 61 56 93 58 95 52 85 55 11 62 13 71 87 21 57 63 50 18 70 8 26 84 25 74 37 17 35 24 64 23 33 41 49 53 36 94 97 6 46 2 75 67 30 45 79 51 22 81 10 98 90 43 34 89 59 76 9 31 60 1